\ENCODING=ISO-8859-1
\Problem name: ilog.cplex

Minimize
 obj1: 92661 x1 + 97731 x2 + 95017 x3 + 106523 x4 + 91824 x5 + 105591 x6
       + 96497 x7 + 106424 x8 + 95884 x9 + 90702 x10 + 106581 x11 + 90935 x12
       + 90488 x13 + 94336 x14 + 91634 x15 + 90506 x16 + 100504 x17 + 95572 x18
       + 93820 x19 + 94444 x20 + 92702 x21 + 101406 x22 + 91236 x23 + 97892 x24
       + 102010 x25 + 98322 x26 + 91738 x27 + 101353 x28 + 105566 x29
       + 98824 x30 + 95200 x31 + 109684 x32 + 96246 x33 + 96000 x34
       + 101785 x35 + 104892 x36 + 90533 x37 + 99339 x38 + 92256 x39
       + 105040 x40 + 104332 x41 + 105841 x42 + 100435 x43 + 90165 x44
       + 104759 x45 + 101881 x46 + 97642 x47 + 95388 x48 + 95924 x49
       + 93326 x50 + 104113 x51 + 94487 x52 + 91545 x53 + 95266 x54
       + 106751 x55 + 97139 x56 + 101023 x57 + 102746 x58 + 92173 x59
       + 97107 x60 + 95061 x61 + 99495 x62 + 90900 x63 + 90491 x64 + 98289 x65
       + 97350 x66 + 102657 x67 + 99426 x68 + 90124 x69 + 103639 x70
       + 97376 x71 + 91927 x72 + 99790 x73 + 92767 x74 + 96954 x75 + 96714 x76
       + 97351 x77 + 91775 x78 + 94190 x79 + 103334 x80 + 92181 x81 + 91192 x82
       + 92981 x83 + 93845 x84 + 95792 x85 + 98791 x86 + 102178 x87 + 93902 x88
       + 102038 x89 + 95748 x90 + 104419 x91 + 98299 x92 + 104476 x93
       + 92210 x94 + 90813 x95 + 98870 x96 + 107991 x97 + 92448 x98
       + 102510 x99 + 101072 x100 + 99680 x101 + 103756 x102 + 105764 x103
       + 100511 x104 + 93741 x105 + 90294 x106 + 103479 x107 + 107513 x108
       + 96232 x109 + 95913 x110 + 109772 x111 + 105864 x112 + 94854 x113
       + 94457 x114 + 100835 x115 + 98350 x116 + 106966 x117 + 105250 x118
       + 101813 x119 + 90182 x120 + 103863 x121 + 94066 x122 + 108918 x123
       + 94105 x124 + 97450 x125 + 105491 x126 + 90630 x127 + 92100 x128
       + 105802 x129 + 98194 x130 + 99555 x131 + 94413 x132 + 103197 x133
       + 98259 x134 + 95930 x135 + 93107 x136 + 94911 x137 + 99938 x138
       + 108774 x139 + 104358 x140 + 97395 x141 + 108079 x142 + 101330 x143
       + 91397 x144 + 90408 x145 + 91944 x146 + 103724 x147 + 98316 x148
       + 99272 x149 + 106265 x150 + 92110 x151 + 105293 x152 + 103838 x153
       + 103788 x154 + 97510 x155 + 98375 x156 + 91202 x157 + 92640 x158
       + 95770 x159 + 100859 x160 + 103125 x161 + 98354 x162 + 108011 x163
       + 94666 x164 + 106485 x165 + 93820 x166 + 95719 x167 + 106630 x168
       + 94708 x169 + 97297 x170 + 98960 x171 + 101143 x172 + 91826 x173
       + 108121 x174 + 96374 x175 + 104031 x176 + 102878 x177 + 109753 x178
       + 94219 x179 + 90136 x180 + 93666 x181 + 95708 x182 + 93423 x183
       + 99588 x184 + 107471 x185 + 101709 x186 + 96021 x187 + 95897 x188
       + 91492 x189 + 100881 x190 + 95282 x191 + 102762 x192 + 91564 x193
       + 97886 x194 + 107512 x195 + 95897 x196 + 100154 x197 + 102585 x198
       + 107684 x199 + 101186 x200 + 101121 x201 + 90840 x202 + 102689 x203
       + 107733 x204 + 97760 x205 + 104049 x206 + 96318 x207 + 95543 x208
       + 102322 x209 + 100799 x210 + 90253 x211 + 98756 x212 + 99056 x213
       + 101572 x214 + 105545 x215 + 93268 x216 + 104188 x217 + 106881 x218
       + 104962 x219 + 102266 x220 + 109481 x221 + 108958 x222 + 96875 x223
       + 107319 x224 + 104375 x225 + 102970 x226 + 107959 x227 + 108382 x228
       + 90667 x229 + 108713 x230 + 100767 x231 + 91196 x232 + 99353 x233
       + 106405 x234 + 93252 x235 + 91018 x236 + 90515 x237 + 103510 x238
       + 103843 x239 + 102737 x240 + 104025 x241 + 103439 x242 + 97923 x243
       + 99183 x244 + 91377 x245 + 101523 x246 + 109374 x247 + 101784 x248
       + 97074 x249 + 108846 x250 + 100307 x251 + 103238 x252 + 105315 x253
       + 108977 x254 + 99722 x255 + 92442 x256 + 99763 x257 + 101314 x258
       + 91809 x259 + 96048 x260 + 103874 x261 + 94662 x262 + 108593 x263
       + 105758 x264 + 94377 x265 + 92677 x266 + 96071 x267 + 97160 x268
       + 108134 x269 + 97738 x270 + 105870 x271 + 98574 x272 + 105502 x273
       + 101085 x274 + 96227 x275 + 101257 x276 + 99413 x277 + 98263 x278
       + 106763 x279 + 98247 x280 + 93719 x281 + 104746 x282 + 92342 x283
       + 93218 x284 + 102976 x285 + 101008 x286 + 102712 x287 + 100398 x288
       + 105068 x289 + 106310 x290 + 96704 x291 + 101973 x292 + 107950 x293
       + 106156 x294 + 102417 x295 + 100326 x296 + 92259 x297 + 99582 x298
       + 98122 x299 + 99043 x300 + 108854 x301 + 102623 x302 + 90992 x303
       + 107814 x304 + 102474 x305 + 99326 x306 + 103396 x307 + 93239 x308
       + 95782 x309 + 109120 x310 + 90257 x311 + 104477 x312 + 91868 x313
       + 106648 x314 + 97498 x315 + 108334 x316 + 109163 x317 + 105729 x318
       + 109704 x319 + 101098 x320 + 105211 x321 + 94581 x322 + 97773 x323
       + 95662 x324 + 103609 x325 + 93553 x326 + 96696 x327 + 101092 x328
       + 93198 x329 + 99670 x330 + 94213 x331 + 107217 x332 + 95819 x333
       + 108969 x334 + 108616 x335 + 96351 x336 + 91768 x337 + 105045 x338
       + 107101 x339 + 94445 x340 + 90540 x341 + 90145 x342 + 104866 x343
       + 104773 x344 + 98544 x345 + 93807 x346 + 109508 x347 + 98662 x348
       + 105164 x349 + 103259 x350 + 99656 x351 + 107840 x352 + 91714 x353
       + 106159 x354 + 94740 x355 + 109788 x356 + 109909 x357 + 92251 x358
       + 103584 x359 + 107421 x360 + 96926 x361 + 95543 x362 + 100868 x363
       + 97603 x364 + 109547 x365 + 94578 x366 + 90459 x367 + 95040 x368
       + 105443 x369 + 90596 x370 + 91058 x371 + 92376 x372 + 90887 x373
       + 97389 x374 + 104337 x375 + 95427 x376 + 108029 x377 + 105028 x378
       + 106147 x379 + 100771 x380 + 107196 x381 + 99313 x382 + 106320 x383
       + 103617 x384 + 107398 x385 + 104789 x386 + 98027 x387 + 100111 x388
       + 106455 x389 + 90735 x390 + 103786 x391 + 100130 x392 + 101172 x393
       + 96734 x394 + 101947 x395 + 94159 x396 + 97460 x397 + 97281 x398
       + 104843 x399 + 100958 x400 + 101532 x401 + 96038 x402 + 92824 x403
       + 96794 x404 + 99276 x405 + 94606 x406 + 101697 x407 + 101755 x408
       + 96207 x409 + 93944 x410 + 92738 x411 + 92485 x412 + 100851 x413
       + 95804 x414 + 109936 x415 + 94502 x416 + 104571 x417 + 98020 x418
       + 103082 x419 + 93335 x420 + 100100 x421 + 105955 x422 + 109346 x423
       + 97524 x424 + 108468 x425 + 92203 x426 + 106427 x427 + 102881 x428
       + 108742 x429 + 108541 x430 + 95348 x431 + 93642 x432 + 108699 x433
       + 99957 x434 + 90036 x435 + 109676 x436 + 94002 x437 + 96990 x438
       + 95541 x439 + 93210 x440 + 108422 x441 + 109689 x442 + 107077 x443
       + 103361 x444 + 108326 x445 + 94125 x446 + 98023 x447 + 92271 x448
       + 100911 x449 + 90764 x450 + 102863 x451 + 98194 x452 + 94009 x453
       + 91125 x454 + 92656 x455 + 92981 x456 + 99684 x457 + 99462 x458
       + 103232 x459 + 107235 x460 + 109813 x461 + 105537 x462 + 104844 x463
       + 100464 x464 + 107696 x465 + 109789 x466 + 95783 x467 + 90471 x468
       + 101300 x469 + 109683 x470 + 100019 x471 + 93651 x472 + 108965 x473
       + 97415 x474 + 96483 x475 + 108826 x476 + 109608 x477 + 97879 x478
       + 108172 x479 + 109491 x480 + 98733 x481 + 95941 x482 + 93156 x483
       + 101565 x484 + 103293 x485 + 104556 x486 + 94165 x487 + 101556 x488
       + 90809 x489 + 103430 x490 + 98560 x491 + 93525 x492 + 101162 x493
       + 91678 x494 + 96333 x495 + 92290 x496 + 93050 x497 + 107349 x498
       + 100173 x499 + 308788 x500 + 439761 x501 + 386909 x502 + 432772 x503
       + 404797 x504 + 434799 x505 + 423508 x506 + 413171 x507 + 417750 x508
       + 376256 x509 + 432721 x510 + 377389 x511 + 372481 x512 + 365661 x513
       + 411994 x514 + 375060 x515 + 437763 x516 + 418240 x517 + 427027 x518
       + 399379 x519 + 415964 x520 + 409912 x521 + 370477 x522 + 392606 x523
       + 399369 x524 + 408599 x525 + 393678 x526 + 397518 x527 + 405787 x528
       + 385135 x529 + 439542 x530 + 412574 x531 + 363823 x532 + 425959 x533
       + 416154 x534 + 369322 x535 + 433313 x536 + 424291 x537 + 369371 x538
       + 398743 x539 + 368952 x540 + 368380 x541 + 379094 x542 + 428941 x543
       + 425277 x544 + 374923 x545 + 417698 x546 + 399803 x547 + 438684 x548
       + 412671 x549 + 206002 x550
Subject To
 c1:   x1 - x16 + x22 - x30 - x31  = 0
 c2:   x51 - x66 + x72 - x80 - x81  = 0
 c3:   x101 - x116 + x122 - x130 - x131  = -1
 c4:   x151 - x166 + x172 - x180 - x181  = 0
 c5:   x201 - x216 + x222 - x230 - x231  = 0
 c6:   x251 - x266 + x272 - x280 - x281  = 0
 c7:   x301 - x316 + x322 - x330 - x331  = 0
 c8:   x351 - x366 + x372 - x380 - x381  = 0
 c9:   x401 - x416 + x422 - x430 - x431  = 0
 c10:  x451 - x466 + x472 - x480 - x481  = 0
 c11:  x11 - x13 - x37 - x40 - x46  = 0
 c12:  x61 - x63 - x87 - x90 - x96  = 0
 c13:  x111 - x113 - x137 - x140 - x146  = 0
 c14:  x161 - x163 - x187 - x190 - x196  = 0
 c15:  x211 - x213 - x237 - x240 - x246  = 0
 c16:  x261 - x263 - x287 - x290 - x296  = -1
 c17:  x311 - x313 - x337 - x340 - x346  = -1
 c18:  x361 - x363 - x387 - x390 - x396  = 0
 c19:  x411 - x413 - x437 - x440 - x446  = 0
 c20:  x461 - x463 - x487 - x490 - x496  = 0
 c21:  x26 - x27 + x45 + x48  = 0
 c22:  x76 - x77 + x95 + x98  = 0
 c23:  x126 - x127 + x145 + x148  = 0
 c24:  x176 - x177 + x195 + x198  = 0
 c25:  x226 - x227 + x245 + x248  = 0
 c26:  x276 - x277 + x295 + x298  = 0
 c27:  x326 - x327 + x345 + x348  = 0
 c28:  x376 - x377 + x395 + x398  = 0
 c29:  x426 - x427 + x445 + x448  = 1
 c30:  x476 - x477 + x495 + x498  = 1
 c31:  x6 + x15 + x30 - x41 - x42  = -1
 c32:  x56 + x65 + x80 - x91 - x92  = 0
 c33:  x106 + x115 + x130 - x141 - x142  = 0
 c34:  x156 + x165 + x180 - x191 - x192  = 0
 c35:  x206 + x215 + x230 - x241 - x242  = 1
 c36:  x256 + x265 + x280 - x291 - x292  = 0
 c37:  x306 + x315 + x330 - x341 - x342  = 0
 c38:  x356 + x365 + x380 - x391 - x392  = 0
 c39:  x406 + x415 + x430 - x441 - x442  = 0
 c40:  x456 + x465 + x480 - x491 - x492  = 0
 c41:  - x8 - x11 + x12 + x20 + x32 + x40 + x41 + x43 - x48  = 0
 c42:  - x58 - x61 + x62 + x70 + x82 + x90 + x91 + x93 - x98  = 0
 c43:  - x108 - x111 + x112 + x120 + x132 + x140 + x141 + x143 - x148  = 0
 c44:  - x158 - x161 + x162 + x170 + x182 + x190 + x191 + x193 - x198  = 0
 c45:  - x208 - x211 + x212 + x220 + x232 + x240 + x241 + x243 - x248  = 0
 c46:  - x258 - x261 + x262 + x270 + x282 + x290 + x291 + x293 - x298  = 0
 c47:  - x308 - x311 + x312 + x320 + x332 + x340 + x341 + x343 - x348  = 0
 c48:  - x358 - x361 + x362 + x370 + x382 + x390 + x391 + x393 - x398  = 0
 c49:  - x408 - x411 + x412 + x420 + x432 + x440 + x441 + x443 - x448  = 0
 c50:  - x458 - x461 + x462 + x470 + x482 + x490 + x491 + x493 - x498  = 0
 c51:  - x1 + x3 - x5 + x16 - x17 - x28 - x34 + x38 + x49  = 0
 c52:  - x51 + x53 - x55 + x66 - x67 - x78 - x84 + x88 + x99  = 0
 c53:  - x101 + x103 - x105 + x116 - x117 - x128 - x134 + x138 + x149  = 0
 c54:  - x151 + x153 - x155 + x166 - x167 - x178 - x184 + x188 + x199  = 0
 c55:  - x201 + x203 - x205 + x216 - x217 - x228 - x234 + x238 + x249  = 0
 c56:  - x251 + x253 - x255 + x266 - x267 - x278 - x284 + x288 + x299  = 0
 c57:  - x301 + x303 - x305 + x316 - x317 - x328 - x334 + x338 + x349  = 0
 c58:  - x351 + x353 - x355 + x366 - x367 - x378 - x384 + x388 + x399  = 0
 c59:  - x401 + x403 - x405 + x416 - x417 - x428 - x434 + x438 + x449  = -1
 c60:  - x451 + x453 - x455 + x466 - x467 - x478 - x484 + x488 + x499  = -1
 c61:  x2 - x14 - x19 + x37 + x44  = 0
 c62:  x52 - x64 - x69 + x87 + x94  = 0
 c63:  x102 - x114 - x119 + x137 + x144  = 0
 c64:  x152 - x164 - x169 + x187 + x194  = 0
 c65:  x202 - x214 - x219 + x237 + x244  = 0
 c66:  x252 - x264 - x269 + x287 + x294  = 0
 c67:  x302 - x314 - x319 + x337 + x344  = 0
 c68:  x352 - x364 - x369 + x387 + x394  = 0
 c69:  x402 - x414 - x419 + x437 + x444  = 0
 c70:  x452 - x464 - x469 + x487 + x494  = 0
 c71:  - x3 + x5 - x22 - x24 + x25 - x29 + x50  = 0
 c72:  - x53 + x55 - x72 - x74 + x75 - x79 + x100  = 0
 c73:  - x103 + x105 - x122 - x124 + x125 - x129 + x150  = 0
 c74:  - x153 + x155 - x172 - x174 + x175 - x179 + x200  = 0
 c75:  - x203 + x205 - x222 - x224 + x225 - x229 + x250  = 0
 c76:  - x253 + x255 - x272 - x274 + x275 - x279 + x300  = 0
 c77:  - x303 + x305 - x322 - x324 + x325 - x329 + x350  = 0
 c78:  - x353 + x355 - x372 - x374 + x375 - x379 + x400  = 0
 c79:  - x403 + x405 - x422 - x424 + x425 - x429 + x450  = 0
 c80:  - x453 + x455 - x472 - x474 + x475 - x479 + x500  = 0
 c81:  - x18 + x34 + x35 + x46  = 0
 c82:  - x68 + x84 + x85 + x96  = 1
 c83:  - x118 + x134 + x135 + x146  = 0
 c84:  - x168 + x184 + x185 + x196  = 0
 c85:  - x218 + x234 + x235 + x246  = 0
 c86:  - x268 + x284 + x285 + x296  = 1
 c87:  - x318 + x334 + x335 + x346  = 0
 c88:  - x368 + x384 + x385 + x396  = 0
 c89:  - x418 + x434 + x435 + x446  = 0
 c90:  - x468 + x484 + x485 + x496  = 0
 c91:  x4 - x7 + x9 - x10 + x33 - x45 - x47  = 0
 c92:  x54 - x57 + x59 - x60 + x83 - x95 - x97  = -1
 c93:  x104 - x107 + x109 - x110 + x133 - x145 - x147  = 0
 c94:  x154 - x157 + x159 - x160 + x183 - x195 - x197  = -1
 c95:  x204 - x207 + x209 - x210 + x233 - x245 - x247  = 0
 c96:  x254 - x257 + x259 - x260 + x283 - x295 - x297  = 0
 c97:  x304 - x307 + x309 - x310 + x333 - x345 - x347  = 0
 c98:  x354 - x357 + x359 - x360 + x383 - x395 - x397  = 0
 c99:  x404 - x407 + x409 - x410 + x433 - x445 - x447  = 0
 c100: x454 - x457 + x459 - x460 + x483 - x495 - x497  = 0
 c101: x7 + x13 - x21 + x31 - x32 + x36 - x39 - x44 - x49 - x50  = 0
 c102: x57 + x63 - x71 + x81 - x82 + x86 - x89 - x94 - x99 - x100  = 0
 c103: x107 + x113 - x121 + x131 - x132 + x136 - x139 - x144 - x149 - x150  = 0
 c104: x157 + x163 - x171 + x181 - x182 + x186 - x189 - x194 - x199 - x200  = 1
 c105: x207 + x213 - x221 + x231 - x232 + x236 - x239 - x244 - x249 - x250  = 0
 c106: x257 + x263 - x271 + x281 - x282 + x286 - x289 - x294 - x299 - x300  = 0
 c107: x307 + x313 - x321 + x331 - x332 + x336 - x339 - x344 - x349 - x350  = 0
 c108: x357 + x363 - x371 + x381 - x382 + x386 - x389 - x394 - x399 - x400
        = -1
 c109: x407 + x413 - x421 + x431 - x432 + x436 - x439 - x444 - x449 - x450  = 0
 c110: x457 + x463 - x471 + x481 - x482 + x486 - x489 - x494 - x499 - x500  = 0
 c111: - x4 + x8 + x14 + x18 - x20 - x23 - x36 + x42  = 0
 c112: - x54 + x58 + x64 + x68 - x70 - x73 - x86 + x92  = 0
 c113: - x104 + x108 + x114 + x118 - x120 - x123 - x136 + x142  = 0
 c114: - x154 + x158 + x164 + x168 - x170 - x173 - x186 + x192  = 0
 c115: - x204 + x208 + x214 + x218 - x220 - x223 - x236 + x242  = -1
 c116: - x254 + x258 + x264 + x268 - x270 - x273 - x286 + x292  = 0
 c117: - x304 + x308 + x314 + x318 - x320 - x323 - x336 + x342  = 0
 c118: - x354 + x358 + x364 + x368 - x370 - x373 - x386 + x392  = 0
 c119: - x404 + x408 + x414 + x418 - x420 - x423 - x436 + x442  = 0
 c120: - x454 + x458 + x464 + x468 - x470 - x473 - x486 + x492  = 0
 c121: - x2 - x6 - x9 + x10 + x23 + x24 - x25 - x26 - x35 + x39 - x43  = 0
 c122: - x52 - x56 - x59 + x60 + x73 + x74 - x75 - x76 - x85 + x89 - x93  = 0
 c123: - x102 - x106 - x109 + x110 + x123 + x124 - x125 - x126 - x135 + x139
       - x143  = 0
 c124: - x152 - x156 - x159 + x160 + x173 + x174 - x175 - x176 - x185 + x189
       - x193  = 0
 c125: - x202 - x206 - x209 + x210 + x223 + x224 - x225 - x226 - x235 + x239
       - x243  = 0
 c126: - x252 - x256 - x259 + x260 + x273 + x274 - x275 - x276 - x285 + x289
       - x293  = 0
 c127: - x302 - x306 - x309 + x310 + x323 + x324 - x325 - x326 - x335 + x339
       - x343  = 0
 c128: - x352 - x356 - x359 + x360 + x373 + x374 - x375 - x376 - x385 + x389
       - x393  = 0
 c129: - x402 - x406 - x409 + x410 + x423 + x424 - x425 - x426 - x435 + x439
       - x443  = 0
 c130: - x452 - x456 - x459 + x460 + x473 + x474 - x475 - x476 - x485 + x489
       - x493  = 0
 c131: - x12 + x17 + x19 + x21 - x38  = 1
 c132: - x62 + x67 + x69 + x71 - x88  = 0
 c133: - x112 + x117 + x119 + x121 - x138  = 1
 c134: - x162 + x167 + x169 + x171 - x188  = 0
 c135: - x212 + x217 + x219 + x221 - x238  = 0
 c136: - x262 + x267 + x269 + x271 - x288  = 0
 c137: - x312 + x317 + x319 + x321 - x338  = 0
 c138: - x362 + x367 + x369 + x371 - x388  = 0
 c139: - x412 + x417 + x419 + x421 - x438  = 0
 c140: - x462 + x467 + x469 + x471 - x488  = 0
 c141: - x15 + x27 + x28 + x29 - x33 + x47  = 0
 c142: - x65 + x77 + x78 + x79 - x83 + x97  = 0
 c143: - x115 + x127 + x128 + x129 - x133 + x147  = 0
 c144: - x165 + x177 + x178 + x179 - x183 + x197  = 0
 c145: - x215 + x227 + x228 + x229 - x233 + x247  = 0
 c146: - x265 + x277 + x278 + x279 - x283 + x297  = 0
 c147: - x315 + x327 + x328 + x329 - x333 + x347  = 1
 c148: - x365 + x377 + x378 + x379 - x383 + x397  = 1
 c149: - x415 + x427 + x428 + x429 - x433 + x447  = 0
 c150: - x465 + x477 + x478 + x479 - x483 + x497  = 0
 c151: 4 x1 + 4 x51 + 4 x101 + 4 x151 + 4 x201 + 4 x251 + 4 x301 + 4 x351
       + 4 x401 + 4 x451 - 5 x501 <= 0
 c152: 4 x2 + 4 x52 + 4 x102 + 4 x152 + 4 x202 + 4 x252 + 4 x302 + 4 x352
       + 4 x402 + 4 x452 - 5 x502 <= 0
 c153: 4 x3 + 4 x53 + 4 x103 + 4 x153 + 4 x203 + 4 x253 + 4 x303 + 4 x353
       + 4 x403 + 4 x453 - 5 x503 <= 0
 c154: 4 x4 + 4 x54 + 4 x104 + 4 x154 + 4 x204 + 4 x254 + 4 x304 + 4 x354
       + 4 x404 + 4 x454 - 5 x504 <= 0
 c155: 4 x5 + 4 x55 + 4 x105 + 4 x155 + 4 x205 + 4 x255 + 4 x305 + 4 x355
       + 4 x405 + 4 x455 - 5 x505 <= 0
 c156: 4 x6 + 4 x56 + 4 x106 + 4 x156 + 4 x206 + 4 x256 + 4 x306 + 4 x356
       + 4 x406 + 4 x456 - 5 x506 <= 0
 c157: 4 x7 + 4 x57 + 4 x107 + 4 x157 + 4 x207 + 4 x257 + 4 x307 + 4 x357
       + 4 x407 + 4 x457 - 5 x507 <= 0
 c158: 4 x8 + 4 x58 + 4 x108 + 4 x158 + 4 x208 + 4 x258 + 4 x308 + 4 x358
       + 4 x408 + 4 x458 - 5 x508 <= 0
 c159: 4 x9 + 4 x59 + 4 x109 + 4 x159 + 4 x209 + 4 x259 + 4 x309 + 4 x359
       + 4 x409 + 4 x459 - 5 x509 <= 0
 c160: 4 x10 + 4 x60 + 4 x110 + 4 x160 + 4 x210 + 4 x260 + 4 x310 + 4 x360
       + 4 x410 + 4 x460 - 5 x510 <= 0
 c161: 4 x11 + 4 x61 + 4 x111 + 4 x161 + 4 x211 + 4 x261 + 4 x311 + 4 x361
       + 4 x411 + 4 x461 - 5 x511 <= 0
 c162: 4 x12 + 4 x62 + 4 x112 + 4 x162 + 4 x212 + 4 x262 + 4 x312 + 4 x362
       + 4 x412 + 4 x462 - 5 x512 <= 0
 c163: 4 x13 + 4 x63 + 4 x113 + 4 x163 + 4 x213 + 4 x263 + 4 x313 + 4 x363
       + 4 x413 + 4 x463 - 5 x513 <= 0
 c164: 4 x14 + 4 x64 + 4 x114 + 4 x164 + 4 x214 + 4 x264 + 4 x314 + 4 x364
       + 4 x414 + 4 x464 - 5 x514 <= 0
 c165: 4 x15 + 4 x65 + 4 x115 + 4 x165 + 4 x215 + 4 x265 + 4 x315 + 4 x365
       + 4 x415 + 4 x465 - 5 x515 <= 0
 c166: 4 x16 + 4 x66 + 4 x116 + 4 x166 + 4 x216 + 4 x266 + 4 x316 + 4 x366
       + 4 x416 + 4 x466 - 5 x516 <= 0
 c167: 4 x17 + 4 x67 + 4 x117 + 4 x167 + 4 x217 + 4 x267 + 4 x317 + 4 x367
       + 4 x417 + 4 x467 - 5 x517 <= 0
 c168: 4 x18 + 4 x68 + 4 x118 + 4 x168 + 4 x218 + 4 x268 + 4 x318 + 4 x368
       + 4 x418 + 4 x468 - 5 x518 <= 0
 c169: 4 x19 + 4 x69 + 4 x119 + 4 x169 + 4 x219 + 4 x269 + 4 x319 + 4 x369
       + 4 x419 + 4 x469 - 5 x519 <= 0
 c170: 4 x20 + 4 x70 + 4 x120 + 4 x170 + 4 x220 + 4 x270 + 4 x320 + 4 x370
       + 4 x420 + 4 x470 - 5 x520 <= 0
 c171: 4 x21 + 4 x71 + 4 x121 + 4 x171 + 4 x221 + 4 x271 + 4 x321 + 4 x371
       + 4 x421 + 4 x471 - 5 x521 <= 0
 c172: 4 x22 + 4 x72 + 4 x122 + 4 x172 + 4 x222 + 4 x272 + 4 x322 + 4 x372
       + 4 x422 + 4 x472 - 5 x522 <= 0
 c173: 4 x23 + 4 x73 + 4 x123 + 4 x173 + 4 x223 + 4 x273 + 4 x323 + 4 x373
       + 4 x423 + 4 x473 - 5 x523 <= 0
 c174: 4 x24 + 4 x74 + 4 x124 + 4 x174 + 4 x224 + 4 x274 + 4 x324 + 4 x374
       + 4 x424 + 4 x474 - 5 x524 <= 0
 c175: 4 x25 + 4 x75 + 4 x125 + 4 x175 + 4 x225 + 4 x275 + 4 x325 + 4 x375
       + 4 x425 + 4 x475 - 5 x525 <= 0
 c176: 4 x26 + 4 x76 + 4 x126 + 4 x176 + 4 x226 + 4 x276 + 4 x326 + 4 x376
       + 4 x426 + 4 x476 - 5 x526 <= 0
 c177: 4 x27 + 4 x77 + 4 x127 + 4 x177 + 4 x227 + 4 x277 + 4 x327 + 4 x377
       + 4 x427 + 4 x477 - 5 x527 <= 0
 c178: 4 x28 + 4 x78 + 4 x128 + 4 x178 + 4 x228 + 4 x278 + 4 x328 + 4 x378
       + 4 x428 + 4 x478 - 5 x528 <= 0
 c179: 4 x29 + 4 x79 + 4 x129 + 4 x179 + 4 x229 + 4 x279 + 4 x329 + 4 x379
       + 4 x429 + 4 x479 - 5 x529 <= 0
 c180: 4 x30 + 4 x80 + 4 x130 + 4 x180 + 4 x230 + 4 x280 + 4 x330 + 4 x380
       + 4 x430 + 4 x480 - 5 x530 <= 0
 c181: 4 x31 + 4 x81 + 4 x131 + 4 x181 + 4 x231 + 4 x281 + 4 x331 + 4 x381
       + 4 x431 + 4 x481 - 5 x531 <= 0
 c182: 4 x32 + 4 x82 + 4 x132 + 4 x182 + 4 x232 + 4 x282 + 4 x332 + 4 x382
       + 4 x432 + 4 x482 - 5 x532 <= 0
 c183: 4 x33 + 4 x83 + 4 x133 + 4 x183 + 4 x233 + 4 x283 + 4 x333 + 4 x383
       + 4 x433 + 4 x483 - 5 x533 <= 0
 c184: 4 x34 + 4 x84 + 4 x134 + 4 x184 + 4 x234 + 4 x284 + 4 x334 + 4 x384
       + 4 x434 + 4 x484 - 5 x534 <= 0
 c185: 4 x35 + 4 x85 + 4 x135 + 4 x185 + 4 x235 + 4 x285 + 4 x335 + 4 x385
       + 4 x435 + 4 x485 - 5 x535 <= 0
 c186: 4 x36 + 4 x86 + 4 x136 + 4 x186 + 4 x236 + 4 x286 + 4 x336 + 4 x386
       + 4 x436 + 4 x486 - 5 x536 <= 0
 c187: 4 x37 + 4 x87 + 4 x137 + 4 x187 + 4 x237 + 4 x287 + 4 x337 + 4 x387
       + 4 x437 + 4 x487 - 5 x537 <= 0
 c188: 4 x38 + 4 x88 + 4 x138 + 4 x188 + 4 x238 + 4 x288 + 4 x338 + 4 x388
       + 4 x438 + 4 x488 - 5 x538 <= 0
 c189: 4 x39 + 4 x89 + 4 x139 + 4 x189 + 4 x239 + 4 x289 + 4 x339 + 4 x389
       + 4 x439 + 4 x489 - 5 x539 <= 0
 c190: 4 x40 + 4 x90 + 4 x140 + 4 x190 + 4 x240 + 4 x290 + 4 x340 + 4 x390
       + 4 x440 + 4 x490 - 5 x540 <= 0
 c191: 4 x41 + 4 x91 + 4 x141 + 4 x191 + 4 x241 + 4 x291 + 4 x341 + 4 x391
       + 4 x441 + 4 x491 - 5 x541 <= 0
 c192: 4 x42 + 4 x92 + 4 x142 + 4 x192 + 4 x242 + 4 x292 + 4 x342 + 4 x392
       + 4 x442 + 4 x492 - 5 x542 <= 0
 c193: 4 x43 + 4 x93 + 4 x143 + 4 x193 + 4 x243 + 4 x293 + 4 x343 + 4 x393
       + 4 x443 + 4 x493 - 5 x543 <= 0
 c194: 4 x44 + 4 x94 + 4 x144 + 4 x194 + 4 x244 + 4 x294 + 4 x344 + 4 x394
       + 4 x444 + 4 x494 - 5 x544 <= 0
 c195: 4 x45 + 4 x95 + 4 x145 + 4 x195 + 4 x245 + 4 x295 + 4 x345 + 4 x395
       + 4 x445 + 4 x495 - 5 x545 <= 0
 c196: 4 x46 + 4 x96 + 4 x146 + 4 x196 + 4 x246 + 4 x296 + 4 x346 + 4 x396
       + 4 x446 + 4 x496 - 5 x546 <= 0
 c197: 4 x47 + 4 x97 + 4 x147 + 4 x197 + 4 x247 + 4 x297 + 4 x347 + 4 x397
       + 4 x447 + 4 x497 - 5 x547 <= 0
 c198: 4 x48 + 4 x98 + 4 x148 + 4 x198 + 4 x248 + 4 x298 + 4 x348 + 4 x398
       + 4 x448 + 4 x498 - 5 x548 <= 0
 c199: 4 x49 + 4 x99 + 4 x149 + 4 x199 + 4 x249 + 4 x299 + 4 x349 + 4 x399
       + 4 x449 + 4 x499 - 5 x549 <= 0
 c200: 4 x50 + 4 x100 + 4 x150 + 4 x200 + 4 x250 + 4 x300 + 4 x350 + 4 x400
       + 4 x450 + 4 x500 - 5 x550 <= 0
Bounds
 0 <= x1 <= 1
 0 <= x2 <= 1
 0 <= x3 <= 1
 0 <= x4 <= 1
 0 <= x5 <= 1
 0 <= x6 <= 1
 0 <= x7 <= 1
 0 <= x8 <= 1
 0 <= x9 <= 1
 0 <= x10 <= 1
 0 <= x11 <= 1
 0 <= x12 <= 1
 0 <= x13 <= 1
 0 <= x14 <= 1
 0 <= x15 <= 1
 0 <= x16 <= 1
 0 <= x17 <= 1
 0 <= x18 <= 1
 0 <= x19 <= 1
 0 <= x20 <= 1
 0 <= x21 <= 1
 0 <= x22 <= 1
 0 <= x23 <= 1
 0 <= x24 <= 1
 0 <= x25 <= 1
 0 <= x26 <= 1
 0 <= x27 <= 1
 0 <= x28 <= 1
 0 <= x29 <= 1
 0 <= x30 <= 1
 0 <= x31 <= 1
 0 <= x32 <= 1
 0 <= x33 <= 1
 0 <= x34 <= 1
 0 <= x35 <= 1
 0 <= x36 <= 1
 0 <= x37 <= 1
 0 <= x38 <= 1
 0 <= x39 <= 1
 0 <= x40 <= 1
 0 <= x41 <= 1
 0 <= x42 <= 1
 0 <= x43 <= 1
 0 <= x44 <= 1
 0 <= x45 <= 1
 0 <= x46 <= 1
 0 <= x47 <= 1
 0 <= x48 <= 1
 0 <= x49 <= 1
 0 <= x50 <= 1
 0 <= x51 <= 1
 0 <= x52 <= 1
 0 <= x53 <= 1
 0 <= x54 <= 1
 0 <= x55 <= 1
 0 <= x56 <= 1
 0 <= x57 <= 1
 0 <= x58 <= 1
 0 <= x59 <= 1
 0 <= x60 <= 1
 0 <= x61 <= 1
 0 <= x62 <= 1
 0 <= x63 <= 1
 0 <= x64 <= 1
 0 <= x65 <= 1
 0 <= x66 <= 1
 0 <= x67 <= 1
 0 <= x68 <= 1
 0 <= x69 <= 1
 0 <= x70 <= 1
 0 <= x71 <= 1
 0 <= x72 <= 1
 0 <= x73 <= 1
 0 <= x74 <= 1
 0 <= x75 <= 1
 0 <= x76 <= 1
 0 <= x77 <= 1
 0 <= x78 <= 1
 0 <= x79 <= 1
 0 <= x80 <= 1
 0 <= x81 <= 1
 0 <= x82 <= 1
 0 <= x83 <= 1
 0 <= x84 <= 1
 0 <= x85 <= 1
 0 <= x86 <= 1
 0 <= x87 <= 1
 0 <= x88 <= 1
 0 <= x89 <= 1
 0 <= x90 <= 1
 0 <= x91 <= 1
 0 <= x92 <= 1
 0 <= x93 <= 1
 0 <= x94 <= 1
 0 <= x95 <= 1
 0 <= x96 <= 1
 0 <= x97 <= 1
 0 <= x98 <= 1
 0 <= x99 <= 1
 0 <= x100 <= 1
 0 <= x101 <= 1
 0 <= x102 <= 1
 0 <= x103 <= 1
 0 <= x104 <= 1
 0 <= x105 <= 1
 0 <= x106 <= 1
 0 <= x107 <= 1
 0 <= x108 <= 1
 0 <= x109 <= 1
 0 <= x110 <= 1
 0 <= x111 <= 1
 0 <= x112 <= 1
 0 <= x113 <= 1
 0 <= x114 <= 1
 0 <= x115 <= 1
 0 <= x116 <= 1
 0 <= x117 <= 1
 0 <= x118 <= 1
 0 <= x119 <= 1
 0 <= x120 <= 1
 0 <= x121 <= 1
 0 <= x122 <= 1
 0 <= x123 <= 1
 0 <= x124 <= 1
 0 <= x125 <= 1
 0 <= x126 <= 1
 0 <= x127 <= 1
 0 <= x128 <= 1
 0 <= x129 <= 1
 0 <= x130 <= 1
 0 <= x131 <= 1
 0 <= x132 <= 1
 0 <= x133 <= 1
 0 <= x134 <= 1
 0 <= x135 <= 1
 0 <= x136 <= 1
 0 <= x137 <= 1
 0 <= x138 <= 1
 0 <= x139 <= 1
 0 <= x140 <= 1
 0 <= x141 <= 1
 0 <= x142 <= 1
 0 <= x143 <= 1
 0 <= x144 <= 1
 0 <= x145 <= 1
 0 <= x146 <= 1
 0 <= x147 <= 1
 0 <= x148 <= 1
 0 <= x149 <= 1
 0 <= x150 <= 1
 0 <= x151 <= 1
 0 <= x152 <= 1
 0 <= x153 <= 1
 0 <= x154 <= 1
 0 <= x155 <= 1
 0 <= x156 <= 1
 0 <= x157 <= 1
 0 <= x158 <= 1
 0 <= x159 <= 1
 0 <= x160 <= 1
 0 <= x161 <= 1
 0 <= x162 <= 1
 0 <= x163 <= 1
 0 <= x164 <= 1
 0 <= x165 <= 1
 0 <= x166 <= 1
 0 <= x167 <= 1
 0 <= x168 <= 1
 0 <= x169 <= 1
 0 <= x170 <= 1
 0 <= x171 <= 1
 0 <= x172 <= 1
 0 <= x173 <= 1
 0 <= x174 <= 1
 0 <= x175 <= 1
 0 <= x176 <= 1
 0 <= x177 <= 1
 0 <= x178 <= 1
 0 <= x179 <= 1
 0 <= x180 <= 1
 0 <= x181 <= 1
 0 <= x182 <= 1
 0 <= x183 <= 1
 0 <= x184 <= 1
 0 <= x185 <= 1
 0 <= x186 <= 1
 0 <= x187 <= 1
 0 <= x188 <= 1
 0 <= x189 <= 1
 0 <= x190 <= 1
 0 <= x191 <= 1
 0 <= x192 <= 1
 0 <= x193 <= 1
 0 <= x194 <= 1
 0 <= x195 <= 1
 0 <= x196 <= 1
 0 <= x197 <= 1
 0 <= x198 <= 1
 0 <= x199 <= 1
 0 <= x200 <= 1
 0 <= x201 <= 1
 0 <= x202 <= 1
 0 <= x203 <= 1
 0 <= x204 <= 1
 0 <= x205 <= 1
 0 <= x206 <= 1
 0 <= x207 <= 1
 0 <= x208 <= 1
 0 <= x209 <= 1
 0 <= x210 <= 1
 0 <= x211 <= 1
 0 <= x212 <= 1
 0 <= x213 <= 1
 0 <= x214 <= 1
 0 <= x215 <= 1
 0 <= x216 <= 1
 0 <= x217 <= 1
 0 <= x218 <= 1
 0 <= x219 <= 1
 0 <= x220 <= 1
 0 <= x221 <= 1
 0 <= x222 <= 1
 0 <= x223 <= 1
 0 <= x224 <= 1
 0 <= x225 <= 1
 0 <= x226 <= 1
 0 <= x227 <= 1
 0 <= x228 <= 1
 0 <= x229 <= 1
 0 <= x230 <= 1
 0 <= x231 <= 1
 0 <= x232 <= 1
 0 <= x233 <= 1
 0 <= x234 <= 1
 0 <= x235 <= 1
 0 <= x236 <= 1
 0 <= x237 <= 1
 0 <= x238 <= 1
 0 <= x239 <= 1
 0 <= x240 <= 1
 0 <= x241 <= 1
 0 <= x242 <= 1
 0 <= x243 <= 1
 0 <= x244 <= 1
 0 <= x245 <= 1
 0 <= x246 <= 1
 0 <= x247 <= 1
 0 <= x248 <= 1
 0 <= x249 <= 1
 0 <= x250 <= 1
 0 <= x251 <= 1
 0 <= x252 <= 1
 0 <= x253 <= 1
 0 <= x254 <= 1
 0 <= x255 <= 1
 0 <= x256 <= 1
 0 <= x257 <= 1
 0 <= x258 <= 1
 0 <= x259 <= 1
 0 <= x260 <= 1
 0 <= x261 <= 1
 0 <= x262 <= 1
 0 <= x263 <= 1
 0 <= x264 <= 1
 0 <= x265 <= 1
 0 <= x266 <= 1
 0 <= x267 <= 1
 0 <= x268 <= 1
 0 <= x269 <= 1
 0 <= x270 <= 1
 0 <= x271 <= 1
 0 <= x272 <= 1
 0 <= x273 <= 1
 0 <= x274 <= 1
 0 <= x275 <= 1
 0 <= x276 <= 1
 0 <= x277 <= 1
 0 <= x278 <= 1
 0 <= x279 <= 1
 0 <= x280 <= 1
 0 <= x281 <= 1
 0 <= x282 <= 1
 0 <= x283 <= 1
 0 <= x284 <= 1
 0 <= x285 <= 1
 0 <= x286 <= 1
 0 <= x287 <= 1
 0 <= x288 <= 1
 0 <= x289 <= 1
 0 <= x290 <= 1
 0 <= x291 <= 1
 0 <= x292 <= 1
 0 <= x293 <= 1
 0 <= x294 <= 1
 0 <= x295 <= 1
 0 <= x296 <= 1
 0 <= x297 <= 1
 0 <= x298 <= 1
 0 <= x299 <= 1
 0 <= x300 <= 1
 0 <= x301 <= 1
 0 <= x302 <= 1
 0 <= x303 <= 1
 0 <= x304 <= 1
 0 <= x305 <= 1
 0 <= x306 <= 1
 0 <= x307 <= 1
 0 <= x308 <= 1
 0 <= x309 <= 1
 0 <= x310 <= 1
 0 <= x311 <= 1
 0 <= x312 <= 1
 0 <= x313 <= 1
 0 <= x314 <= 1
 0 <= x315 <= 1
 0 <= x316 <= 1
 0 <= x317 <= 1
 0 <= x318 <= 1
 0 <= x319 <= 1
 0 <= x320 <= 1
 0 <= x321 <= 1
 0 <= x322 <= 1
 0 <= x323 <= 1
 0 <= x324 <= 1
 0 <= x325 <= 1
 0 <= x326 <= 1
 0 <= x327 <= 1
 0 <= x328 <= 1
 0 <= x329 <= 1
 0 <= x330 <= 1
 0 <= x331 <= 1
 0 <= x332 <= 1
 0 <= x333 <= 1
 0 <= x334 <= 1
 0 <= x335 <= 1
 0 <= x336 <= 1
 0 <= x337 <= 1
 0 <= x338 <= 1
 0 <= x339 <= 1
 0 <= x340 <= 1
 0 <= x341 <= 1
 0 <= x342 <= 1
 0 <= x343 <= 1
 0 <= x344 <= 1
 0 <= x345 <= 1
 0 <= x346 <= 1
 0 <= x347 <= 1
 0 <= x348 <= 1
 0 <= x349 <= 1
 0 <= x350 <= 1
 0 <= x351 <= 1
 0 <= x352 <= 1
 0 <= x353 <= 1
 0 <= x354 <= 1
 0 <= x355 <= 1
 0 <= x356 <= 1
 0 <= x357 <= 1
 0 <= x358 <= 1
 0 <= x359 <= 1
 0 <= x360 <= 1
 0 <= x361 <= 1
 0 <= x362 <= 1
 0 <= x363 <= 1
 0 <= x364 <= 1
 0 <= x365 <= 1
 0 <= x366 <= 1
 0 <= x367 <= 1
 0 <= x368 <= 1
 0 <= x369 <= 1
 0 <= x370 <= 1
 0 <= x371 <= 1
 0 <= x372 <= 1
 0 <= x373 <= 1
 0 <= x374 <= 1
 0 <= x375 <= 1
 0 <= x376 <= 1
 0 <= x377 <= 1
 0 <= x378 <= 1
 0 <= x379 <= 1
 0 <= x380 <= 1
 0 <= x381 <= 1
 0 <= x382 <= 1
 0 <= x383 <= 1
 0 <= x384 <= 1
 0 <= x385 <= 1
 0 <= x386 <= 1
 0 <= x387 <= 1
 0 <= x388 <= 1
 0 <= x389 <= 1
 0 <= x390 <= 1
 0 <= x391 <= 1
 0 <= x392 <= 1
 0 <= x393 <= 1
 0 <= x394 <= 1
 0 <= x395 <= 1
 0 <= x396 <= 1
 0 <= x397 <= 1
 0 <= x398 <= 1
 0 <= x399 <= 1
 0 <= x400 <= 1
 0 <= x401 <= 1
 0 <= x402 <= 1
 0 <= x403 <= 1
 0 <= x404 <= 1
 0 <= x405 <= 1
 0 <= x406 <= 1
 0 <= x407 <= 1
 0 <= x408 <= 1
 0 <= x409 <= 1
 0 <= x410 <= 1
 0 <= x411 <= 1
 0 <= x412 <= 1
 0 <= x413 <= 1
 0 <= x414 <= 1
 0 <= x415 <= 1
 0 <= x416 <= 1
 0 <= x417 <= 1
 0 <= x418 <= 1
 0 <= x419 <= 1
 0 <= x420 <= 1
 0 <= x421 <= 1
 0 <= x422 <= 1
 0 <= x423 <= 1
 0 <= x424 <= 1
 0 <= x425 <= 1
 0 <= x426 <= 1
 0 <= x427 <= 1
 0 <= x428 <= 1
 0 <= x429 <= 1
 0 <= x430 <= 1
 0 <= x431 <= 1
 0 <= x432 <= 1
 0 <= x433 <= 1
 0 <= x434 <= 1
 0 <= x435 <= 1
 0 <= x436 <= 1
 0 <= x437 <= 1
 0 <= x438 <= 1
 0 <= x439 <= 1
 0 <= x440 <= 1
 0 <= x441 <= 1
 0 <= x442 <= 1
 0 <= x443 <= 1
 0 <= x444 <= 1
 0 <= x445 <= 1
 0 <= x446 <= 1
 0 <= x447 <= 1
 0 <= x448 <= 1
 0 <= x449 <= 1
 0 <= x450 <= 1
 0 <= x451 <= 1
 0 <= x452 <= 1
 0 <= x453 <= 1
 0 <= x454 <= 1
 0 <= x455 <= 1
 0 <= x456 <= 1
 0 <= x457 <= 1
 0 <= x458 <= 1
 0 <= x459 <= 1
 0 <= x460 <= 1
 0 <= x461 <= 1
 0 <= x462 <= 1
 0 <= x463 <= 1
 0 <= x464 <= 1
 0 <= x465 <= 1
 0 <= x466 <= 1
 0 <= x467 <= 1
 0 <= x468 <= 1
 0 <= x469 <= 1
 0 <= x470 <= 1
 0 <= x471 <= 1
 0 <= x472 <= 1
 0 <= x473 <= 1
 0 <= x474 <= 1
 0 <= x475 <= 1
 0 <= x476 <= 1
 0 <= x477 <= 1
 0 <= x478 <= 1
 0 <= x479 <= 1
 0 <= x480 <= 1
 0 <= x481 <= 1
 0 <= x482 <= 1
 0 <= x483 <= 1
 0 <= x484 <= 1
 0 <= x485 <= 1
 0 <= x486 <= 1
 0 <= x487 <= 1
 0 <= x488 <= 1
 0 <= x489 <= 1
 0 <= x490 <= 1
 0 <= x491 <= 1
 0 <= x492 <= 1
 0 <= x493 <= 1
 0 <= x494 <= 1
 0 <= x495 <= 1
 0 <= x496 <= 1
 0 <= x497 <= 1
 0 <= x498 <= 1
 0 <= x499 <= 1
 0 <= x500 <= 1
 0 <= x501 <= 1
 0 <= x502 <= 1
 0 <= x503 <= 1
 0 <= x504 <= 1
 0 <= x505 <= 1
 0 <= x506 <= 1
 0 <= x507 <= 1
 0 <= x508 <= 1
 0 <= x509 <= 1
 0 <= x510 <= 1
 0 <= x511 <= 1
 0 <= x512 <= 1
 0 <= x513 <= 1
 0 <= x514 <= 1
 0 <= x515 <= 1
 0 <= x516 <= 1
 0 <= x517 <= 1
 0 <= x518 <= 1
 0 <= x519 <= 1
 0 <= x520 <= 1
 0 <= x521 <= 1
 0 <= x522 <= 1
 0 <= x523 <= 1
 0 <= x524 <= 1
 0 <= x525 <= 1
 0 <= x526 <= 1
 0 <= x527 <= 1
 0 <= x528 <= 1
 0 <= x529 <= 1
 0 <= x530 <= 1
 0 <= x531 <= 1
 0 <= x532 <= 1
 0 <= x533 <= 1
 0 <= x534 <= 1
 0 <= x535 <= 1
 0 <= x536 <= 1
 0 <= x537 <= 1
 0 <= x538 <= 1
 0 <= x539 <= 1
 0 <= x540 <= 1
 0 <= x541 <= 1
 0 <= x542 <= 1
 0 <= x543 <= 1
 0 <= x544 <= 1
 0 <= x545 <= 1
 0 <= x546 <= 1
 0 <= x547 <= 1
 0 <= x548 <= 1
 0 <= x549 <= 1
 0 <= x550 <= 1
Binaries
 x501  x502  x503  x504  x505  x506  x507  x508  x509  x510  x511  x512  x513 
 x514  x515  x516  x517  x518  x519  x520  x521  x522  x523  x524  x525  x526 
 x527  x528  x529  x530  x531  x532  x533  x534  x535  x536  x537  x538  x539 
 x540  x541  x542  x543  x544  x545  x546  x547  x548  x549  x550 
End
